
(set-logic ALL) 

(declare-datatype MyList ((Nil) (Cons (head Real) (tail MyList)) )) 
(declare-fun l0 () MyList) 
(declare-fun l1 () MyList) 
(declare-fun l2 () MyList) 
(declare-fun l3 () MyList) 
(declare-fun i0 () Real) 
(declare-fun i1 () Real) 
(assert (or (is-Nil Nil) (= l2 Nil) (= l0 l3)) )
(assert (not (is-Cons l0)) )
(assert (is-Cons Nil) )
(assert (= l3 l1) )
(assert (is-Cons Nil) )
(assert (and (= l0 Nil) (= l1 l0)) )
(assert (or (= l1 l1) (is-Cons Nil) (= l3 l3) (= l0 l2)) )
(assert (= l2 l0) )
(check-sat)
